100
1000
200
200
200
199
199
199
198
198
198
198
197
197
197
196
195
194
194
194
194
193
193
193
189
188
188
187
187
185
185
185
184
183
183
183
182
181
181
180
180
180
180
179
179
178
177
176
175
173
171
169
169
169
169
169
169
169
168
167
166
165
165
165
165
165
164
163
163
163
162
162
162
162
162
162
161
161
161
161
161
161
160
159
159
159
159
158
158
158
158
157
157
156
155
155
154
154
153
153
152
150
